Welcome to the CBC MILP Solver 
Version: 2.10.12 
Build Date: Aug 20 2024 

command line - /opt/homebrew/bin/cbc computational_data/real_data/lp/wdbc_trial_002.lp seconds 10.0 solve solu computational_data/real_data/solutions/wdbc_trial_002.sol (default strategy 1)
seconds was changed from 1e+100 to 10
Continuous objective value is 6.03333 - 0.00 seconds
Cgl0003I 0 fixed, 0 tightened bounds, 47 strengthened rows, 4 substitutions
Cgl0003I 0 fixed, 0 tightened bounds, 49 strengthened rows, 0 substitutions
Cgl0003I 0 fixed, 0 tightened bounds, 41 strengthened rows, 0 substitutions
Cgl0003I 0 fixed, 0 tightened bounds, 27 strengthened rows, 0 substitutions
Cgl0003I 0 fixed, 0 tightened bounds, 15 strengthened rows, 0 substitutions
Cgl0003I 0 fixed, 0 tightened bounds, 9 strengthened rows, 0 substitutions
Cgl0003I 0 fixed, 0 tightened bounds, 7 strengthened rows, 0 substitutions
Cgl0003I 0 fixed, 0 tightened bounds, 2 strengthened rows, 0 substitutions
Cgl0003I 0 fixed, 0 tightened bounds, 2 strengthened rows, 0 substitutions
Cgl0004I processed model has 56 rows, 28 columns (28 integer (28 of which binary)) and 290 elements
Cutoff increment increased from 1e-05 to 0.9999
Cbc0038I Initial state - 22 integers unsatisfied sum - 4.7
Cbc0038I Pass   1: suminf.    4.70000 (22) obj. 6.7 iterations 1
Cbc0038I Pass   2: suminf.    0.00000 (0) obj. 8 iterations 21
Cbc0038I Solution found of 8
Cbc0038I Before mini branch and bound, 6 integers at bound fixed and 0 continuous
Cbc0038I Full problem 56 rows 28 columns, reduced to 45 rows 22 columns
Cbc0038I Mini branch and bound did not improve solution (0.01 seconds)
Cbc0038I Round again with cutoff of 6.97009
Cbc0038I Pass   3: suminf.    4.70000 (22) obj. 6.7 iterations 0
Cbc0038I Pass   4: suminf.    4.37009 (19) obj. 6.97009 iterations 6
Cbc0038I Pass   5: suminf.    4.02519 (21) obj. 6.97009 iterations 4
Cbc0038I Pass   6: suminf.    3.67946 (19) obj. 6.97009 iterations 7
Cbc0038I Pass   7: suminf.    4.28060 (19) obj. 6.97009 iterations 6
Cbc0038I Pass   8: suminf.    4.19107 (20) obj. 6.97009 iterations 3
Cbc0038I Pass   9: suminf.    4.63676 (24) obj. 6.97009 iterations 7
Cbc0038I Pass  10: suminf.    4.36324 (22) obj. 6.97009 iterations 5
Cbc0038I Pass  11: suminf.    4.22931 (23) obj. 6.97009 iterations 10
Cbc0038I Pass  12: suminf.    4.11964 (18) obj. 6.97009 iterations 5
Cbc0038I Pass  13: suminf.    4.42871 (22) obj. 6.97009 iterations 10
Cbc0038I Pass  14: suminf.    4.11964 (18) obj. 6.97009 iterations 10
Cbc0038I Pass  15: suminf.    4.42871 (22) obj. 6.97009 iterations 11
Cbc0038I Pass  16: suminf.    4.11964 (18) obj. 6.97009 iterations 10
Cbc0038I Pass  17: suminf.    4.42871 (22) obj. 6.97009 iterations 11
Cbc0038I Pass  18: suminf.    3.91366 (18) obj. 6.97009 iterations 10
Cbc0038I Pass  19: suminf.    3.67946 (20) obj. 6.97009 iterations 6
Cbc0038I Pass  20: suminf.    4.19107 (20) obj. 6.97009 iterations 7
Cbc0038I Pass  21: suminf.    4.19107 (20) obj. 6.97009 iterations 1
Cbc0038I Pass  22: suminf.    4.63676 (24) obj. 6.97009 iterations 7
Cbc0038I Pass  23: suminf.    4.36324 (22) obj. 6.97009 iterations 5
Cbc0038I Pass  24: suminf.    4.26919 (19) obj. 6.97009 iterations 13
Cbc0038I Pass  25: suminf.    4.18943 (22) obj. 6.97009 iterations 5
Cbc0038I Pass  26: suminf.    4.18943 (22) obj. 6.97009 iterations 8
Cbc0038I Pass  27: suminf.    4.18943 (22) obj. 6.97009 iterations 3
Cbc0038I Pass  28: suminf.    4.20937 (19) obj. 6.97009 iterations 5
Cbc0038I Pass  29: suminf.    4.18943 (22) obj. 6.97009 iterations 6
Cbc0038I Pass  30: suminf.    4.22931 (23) obj. 6.97009 iterations 5
Cbc0038I Pass  31: suminf.    4.20937 (19) obj. 6.97009 iterations 2
Cbc0038I Pass  32: suminf.    4.18214 (18) obj. 6.97009 iterations 5
Cbc0038I No solution found this major pass
Cbc0038I Before mini branch and bound, 0 integers at bound fixed and 0 continuous
Cbc0038I Full problem 56 rows 28 columns, reduced to 54 rows 28 columns
Cbc0038I Mini branch and bound did not improve solution (0.01 seconds)
Cbc0038I After 0.01 seconds - Feasibility pump exiting with objective of 8 - took 0.00 seconds
Cbc0012I Integer solution of 8 found by feasibility pump after 0 iterations and 0 nodes (0.01 seconds)
Cbc0038I Full problem 56 rows 28 columns, reduced to 45 rows 22 columns
Cbc0031I 4 added rows had average density of 12.25
Cbc0013I At root node, 14 cuts changed objective from 6.7 to 7.395 in 1 passes
Cbc0014I Cut generator 0 (Probing) - 0 row cuts average 0.0 elements, 0 column cuts (0 active)  in 0.000 seconds - new frequency is -100
Cbc0014I Cut generator 1 (Gomory) - 6 row cuts average 14.3 elements, 0 column cuts (0 active)  in 0.000 seconds - new frequency is 1
Cbc0014I Cut generator 2 (Knapsack) - 0 row cuts average 0.0 elements, 0 column cuts (0 active)  in 0.000 seconds - new frequency is -100
Cbc0014I Cut generator 3 (Clique) - 0 row cuts average 0.0 elements, 0 column cuts (0 active)  in 0.000 seconds - new frequency is -100
Cbc0014I Cut generator 4 (MixedIntegerRounding2) - 0 row cuts average 0.0 elements, 0 column cuts (0 active)  in 0.000 seconds - new frequency is -100
Cbc0014I Cut generator 5 (FlowCover) - 0 row cuts average 0.0 elements, 0 column cuts (0 active)  in 0.000 seconds - new frequency is -100
Cbc0014I Cut generator 6 (TwoMirCuts) - 8 row cuts average 16.2 elements, 0 column cuts (0 active)  in 0.000 seconds - new frequency is -100
Cbc0001I Search completed - best objective 8, took 0 iterations and 0 nodes (0.01 seconds)
Cbc0035I Maximum depth 0, 0 variables fixed on reduced cost
Cuts at root node changed objective from 6.7 to 7.395
Probing was tried 1 times and created 0 cuts of which 0 were active after adding rounds of cuts (0.000 seconds)
Gomory was tried 1 times and created 6 cuts of which 0 were active after adding rounds of cuts (0.000 seconds)
Knapsack was tried 1 times and created 0 cuts of which 0 were active after adding rounds of cuts (0.000 seconds)
Clique was tried 1 times and created 0 cuts of which 0 were active after adding rounds of cuts (0.000 seconds)
MixedIntegerRounding2 was tried 1 times and created 0 cuts of which 0 were active after adding rounds of cuts (0.000 seconds)
FlowCover was tried 1 times and created 0 cuts of which 0 were active after adding rounds of cuts (0.000 seconds)
TwoMirCuts was tried 1 times and created 8 cuts of which 0 were active after adding rounds of cuts (0.000 seconds)
ZeroHalf was tried 1 times and created 0 cuts of which 0 were active after adding rounds of cuts (0.000 seconds)

Result - Optimal solution found

Objective value:                8.00000000
Enumerated nodes:               0
Total iterations:               0
Time (CPU seconds):             0.01
Time (Wallclock seconds):       0.01

Total time (CPU seconds):       0.01   (Wallclock seconds):       0.01

